VRPTWMS/instances/mip/freight/5/N5-C_DV10-C_SV50_F12_5_No_1.lp
\ N5-C_DV10-C_SV50_F12_5

Minimize
  29.07 x_d0_c1 + 29.07 z_d0_c1 + 8.0 x_d0_c2 + 8.0 z_d0_c2 + 16.64 x_d0_c3 + 16.64 z_d0_c3 + 19.7 x_d0_c4 + 19.7 z_d0_c4 + 22.8 x_d0_c5 + 22.8 z_d0_c5 + 24.6 x_c1_c2 + 24.6 x_c2_c1 + 24.6 z_c1_c2 + 24.6 z_c2_c1 + 37.36 x_c1_c3 + 37.36 x_c3_c1 + 37.36 z_c1_c3 + 37.36 z_c3_c1 + 14.04 x_c1_c4 + 14.04 x_c4_c1 + 14.04 z_c1_c4 + 14.04 z_c4_c1 + 8.06 x_c1_c5 + 8.06 x_c5_c1 + 8.06 z_c1_c5 + 8.06 z_c5_c1 + 14.04 x_c2_c3 + 14.04 x_c3_c2 + 14.04 z_c2_c3 + 14.04 z_c3_c2 + 12.81 x_c2_c4 + 12.81 x_c4_c2 + 12.81 z_c2_c4 + 12.81 z_c4_c2 + 17.2 x_c2_c5 + 17.2 x_c5_c2 + 17.2 z_c2_c5 + 17.2 z_c5_c2 + 23.77 x_c3_c4 + 23.77 x_c4_c3 + 23.77 z_c3_c4 + 23.77 z_c4_c3 + 29.41 x_c3_c5 + 29.41 x_c5_c3 + 29.41 z_c3_c5 + 29.41 z_c5_c3 + 6.0 x_c4_c5 + 6.0 x_c5_c4 + 6.0 z_c4_c5 + 6.0 z_c5_c4 + 29.07 x_c1_dN + 29.07 z_c1_dN + 8.0 x_c2_dN + 8.0 z_c2_dN + 16.64 x_c3_dN + 16.64 z_c3_dN + 19.7 x_c4_dN + 19.7 z_c4_dN + 22.8 x_c5_dN + 22.8 z_c5_dN + 1000.0 x_d0_c1 + 1000.0 z_d0_c1 + 1000.0 x_d0_c2 + 1000.0 z_d0_c2 + 1000.0 x_d0_c3 + 1000.0 z_d0_c3 + 1000.0 x_d0_c4 + 1000.0 z_d0_c4 + 1000.0 x_d0_c5 + 1000.0 z_d0_c5
Subject To
  Successor_DV_c1: x_c1_c2 + x_c1_c3 + x_c1_c4 + x_c1_c5 + x_c1_dN = 1
  Successor_DV_c2: x_c2_c1 + x_c2_c3 + x_c2_c4 + x_c2_c5 + x_c2_dN = 1
  Successor_DV_c3: x_c3_c1 + x_c3_c2 + x_c3_c4 + x_c3_c5 + x_c3_dN = 1
  Successor_DV_c4: x_c4_c1 + x_c4_c2 + x_c4_c3 + x_c4_c5 + x_c4_dN = 1
  Successor_DV_c5: x_c5_c1 + x_c5_c2 + x_c5_c3 + x_c5_c4 + x_c5_dN = 1
  Successor_SV_c1: z_c1_c2 + z_c1_c3 + z_c1_c4 + z_c1_c5 + z_c1_dN <= 1
  Successor_SV_c2: z_c2_c1 + z_c2_c3 + z_c2_c4 + z_c2_c5 + z_c2_dN <= 1
  Successor_SV_c3: z_c3_c1 + z_c3_c2 + z_c3_c4 + z_c3_c5 + z_c3_dN <= 1
  Successor_SV_c4: z_c4_c1 + z_c4_c2 + z_c4_c3 + z_c4_c5 + z_c4_dN <= 1
  Successor_SV_c5: z_c5_c1 + z_c5_c2 + z_c5_c3 + z_c5_c4 + z_c5_dN <= 1
  Flow_DV_c1: x_d0_c1 + x_c2_c1 + x_c3_c1 + x_c4_c1 + x_c5_c1 - x_c1_dN - x_c1_c2 - x_c1_c3 - x_c1_c4 - x_c1_c5 = 0
  Flow_DV_c2: x_d0_c2 + x_c1_c2 + x_c3_c2 + x_c4_c2 + x_c5_c2 - x_c2_dN - x_c2_c1 - x_c2_c3 - x_c2_c4 - x_c2_c5 = 0
  Flow_DV_c3: x_d0_c3 + x_c1_c3 + x_c2_c3 + x_c4_c3 + x_c5_c3 - x_c3_dN - x_c3_c1 - x_c3_c2 - x_c3_c4 - x_c3_c5 = 0
  Flow_DV_c4: x_d0_c4 + x_c1_c4 + x_c2_c4 + x_c3_c4 + x_c5_c4 - x_c4_dN - x_c4_c1 - x_c4_c2 - x_c4_c3 - x_c4_c5 = 0
  Flow_DV_c5: x_d0_c5 + x_c1_c5 + x_c2_c5 + x_c3_c5 + x_c4_c5 - x_c5_dN - x_c5_c1 - x_c5_c2 - x_c5_c3 - x_c5_c4 = 0
  Flow_SV_c1: z_d0_c1 + z_c2_c1 + z_c3_c1 + z_c4_c1 + z_c5_c1 - z_c1_dN - z_c1_c2 - z_c1_c3 - z_c1_c4 - z_c1_c5 = 0
  Flow_SV_c2: z_d0_c2 + z_c1_c2 + z_c3_c2 + z_c4_c2 + z_c5_c2 - z_c2_dN - z_c2_c1 - z_c2_c3 - z_c2_c4 - z_c2_c5 = 0
  Flow_SV_c3: z_d0_c3 + z_c1_c3 + z_c2_c3 + z_c4_c3 + z_c5_c3 - z_c3_dN - z_c3_c1 - z_c3_c2 - z_c3_c4 - z_c3_c5 = 0
  Flow_SV_c4: z_d0_c4 + z_c1_c4 + z_c2_c4 + z_c3_c4 + z_c5_c4 - z_c4_dN - z_c4_c1 - z_c4_c2 - z_c4_c3 - z_c4_c5 = 0
  Flow_SV_c5: z_d0_c5 + z_c1_c5 + z_c2_c5 + z_c3_c5 + z_c4_c5 - z_c5_dN - z_c5_c1 - z_c5_c2 - z_c5_c3 - z_c5_c4 = 0
  travelDV_d0_c1: tauD_d0 - tauD_c1 + 107.2675 x_d0_c1 <= 100.0
  travelDV_d0_c2: tauD_d0 - tauD_c2 + 102.0 x_d0_c2 <= 100.0
  travelDV_d0_c3: tauD_d0 - tauD_c3 + 104.16 x_d0_c3 <= 100.0
  travelDV_d0_c4: tauD_d0 - tauD_c4 + 104.925 x_d0_c4 <= 100.0
  travelDV_d0_c5: tauD_d0 - tauD_c5 + 105.7 x_d0_c5 <= 100.0
  travelDV_c1_c2: tauD_c1 - tauD_c2 + 113.15 x_c1_c2 + 8.0 p_1 <= 100.0
  travelDV_c1_c3: tauD_c1 - tauD_c3 + 116.34 x_c1_c3 + 8.0 p_1 <= 100.0
  travelDV_c1_c4: tauD_c1 - tauD_c4 + 110.51 x_c1_c4 + 8.0 p_1 <= 100.0
  travelDV_c1_c5: tauD_c1 - tauD_c5 + 109.015 x_c1_c5 + 8.0 p_1 <= 100.0
  travelDV_c2_c1: tauD_c2 - tauD_c1 + 110.15 x_c2_c1 + 8.0 p_2 <= 100.0
  travelDV_c2_c3: tauD_c2 - tauD_c3 + 107.51 x_c2_c3 + 8.0 p_2 <= 100.0
  travelDV_c2_c4: tauD_c2 - tauD_c4 + 107.2025 x_c2_c4 + 8.0 p_2 <= 100.0
  travelDV_c2_c5: tauD_c2 - tauD_c5 + 108.3 x_c2_c5 + 8.0 p_2 <= 100.0
  travelDV_c3_c1: tauD_c3 - tauD_c1 + 113.34 x_c3_c1 + 8.0 p_3 <= 100.0
  travelDV_c3_c2: tauD_c3 - tauD_c2 + 107.51 x_c3_c2 + 8.0 p_3 <= 100.0
  travelDV_c3_c4: tauD_c3 - tauD_c4 + 109.9425 x_c3_c4 + 8.0 p_3 <= 100.0
  travelDV_c3_c5: tauD_c3 - tauD_c5 + 111.3525 x_c3_c5 + 8.0 p_3 <= 100.0
  travelDV_c4_c1: tauD_c4 - tauD_c1 + 111.51 x_c4_c1 + 8.0 p_4 <= 100.0
  travelDV_c4_c2: tauD_c4 - tauD_c2 + 111.2025 x_c4_c2 + 8.0 p_4 <= 100.0
  travelDV_c4_c3: tauD_c4 - tauD_c3 + 113.9425 x_c4_c3 + 8.0 p_4 <= 100.0
  travelDV_c4_c5: tauD_c4 - tauD_c5 + 109.5 x_c4_c5 + 8.0 p_4 <= 100.0
  travelDV_c5_c1: tauD_c5 - tauD_c1 + 108.015 x_c5_c1 + 8.0 p_5 <= 100.0
  travelDV_c5_c2: tauD_c5 - tauD_c2 + 110.3 x_c5_c2 + 8.0 p_5 <= 100.0
  travelDV_c5_c3: tauD_c5 - tauD_c3 + 113.3525 x_c5_c3 + 8.0 p_5 <= 100.0
  travelDV_c5_c4: tauD_c5 - tauD_c4 + 107.5 x_c5_c4 + 8.0 p_5 <= 100.0
  TravelSV_d0_c1: tauS_d0 - tauS_c1 + 100.0 z_d0_c1 <= 92.7325
  TravelSV_d0_c2: tauS_d0 - tauS_c2 + 100.0 z_d0_c2 <= 98.0
  TravelSV_d0_c3: tauS_d0 - tauS_c3 + 100.0 z_d0_c3 <= 95.84
  TravelSV_d0_c4: tauS_d0 - tauS_c4 + 100.0 z_d0_c4 <= 95.075
  TravelSV_d0_c5: tauS_d0 - tauS_c5 + 100.0 z_d0_c5 <= 94.3
  TravelSV_d0_dN: tauS_d0 - tauS_dN + 100.0 z_d0_dN <= 100.0
  TravelSV_c1_c2: tauS_c1 - tauS_c2 + 100.0 z_c1_c2 <= 85.85
  TravelSV_c1_c3: tauS_c1 - tauS_c3 + 100.0 z_c1_c3 <= 82.66
  TravelSV_c1_c4: tauS_c1 - tauS_c4 + 100.0 z_c1_c4 <= 88.49
  TravelSV_c1_c5: tauS_c1 - tauS_c5 + 100.0 z_c1_c5 <= 89.985
  TravelSV_c1_dN: tauS_c1 - tauS_dN + 100.0 z_c1_dN <= 84.7325
  TravelSV_c2_c1: tauS_c2 - tauS_c1 + 100.0 z_c2_c1 <= 85.85
  TravelSV_c2_c3: tauS_c2 - tauS_c3 + 100.0 z_c2_c3 <= 88.49
  TravelSV_c2_c4: tauS_c2 - tauS_c4 + 100.0 z_c2_c4 <= 88.7975
  TravelSV_c2_c5: tauS_c2 - tauS_c5 + 100.0 z_c2_c5 <= 87.7
  TravelSV_c2_dN: tauS_c2 - tauS_dN + 100.0 z_c2_dN <= 90.0
  TravelSV_c3_c1: tauS_c3 - tauS_c1 + 100.0 z_c3_c1 <= 82.66
  TravelSV_c3_c2: tauS_c3 - tauS_c2 + 100.0 z_c3_c2 <= 88.49
  TravelSV_c3_c4: tauS_c3 - tauS_c4 + 100.0 z_c3_c4 <= 86.0575
  TravelSV_c3_c5: tauS_c3 - tauS_c5 + 100.0 z_c3_c5 <= 84.6475
  TravelSV_c3_dN: tauS_c3 - tauS_dN + 100.0 z_c3_dN <= 87.84
  TravelSV_c4_c1: tauS_c4 - tauS_c1 + 100.0 z_c4_c1 <= 88.49
  TravelSV_c4_c2: tauS_c4 - tauS_c2 + 100.0 z_c4_c2 <= 88.7975
  TravelSV_c4_c3: tauS_c4 - tauS_c3 + 100.0 z_c4_c3 <= 86.0575
  TravelSV_c4_c5: tauS_c4 - tauS_c5 + 100.0 z_c4_c5 <= 90.5
  TravelSV_c4_dN: tauS_c4 - tauS_dN + 100.0 z_c4_dN <= 87.075
  TravelSV_c5_c1: tauS_c5 - tauS_c1 + 100.0 z_c5_c1 <= 89.985
  TravelSV_c5_c2: tauS_c5 - tauS_c2 + 100.0 z_c5_c2 <= 87.7
  TravelSV_c5_c3: tauS_c5 - tauS_c3 + 100.0 z_c5_c3 <= 84.6475
  TravelSV_c5_c4: tauS_c5 - tauS_c4 + 100.0 z_c5_c4 <= 90.5
  TravelSV_c5_dN: tauS_c5 - tauS_dN + 100.0 z_c5_dN <= 86.3
  time_window_c1_e: tauD_c1 + 8.0 o_1 >= 45.0
  time_window_c1_l: tauD_c1 + 8.0 o_1 <= 60.0
  time_window_c2_e: tauD_c2 + 8.0 o_2 >= 10.0
  time_window_c2_l: tauD_c2 + 8.0 o_2 <= 25.0
  time_window_c3_e: tauD_c3 + 8.0 o_3 >= 0.0
  time_window_c3_l: tauD_c3 + 8.0 o_3 <= 100.0
  time_window_c4_e: tauD_c4 + 8.0 o_4 >= 30.0
  time_window_c4_l: tauD_c4 + 8.0 o_4 <= 45.0
  time_window_c5_e: tauD_c5 + 8.0 o_5 >= 30.0
  time_window_c5_l: tauD_c5 + 8.0 o_5 <= 45.0
  SyncA_c1_c2_c2: 7.0 o_1 + 100.0 x_c1_c2 - tauD_c2 - 6.15 z_c1_c2 + [ tauS_c2 * z_c1_c2 ] <= 93.85
  SyncA_c1_c2_c3: 7.0 o_1 + 100.0 x_c1_c2 - tauD_c2 - 9.34 z_c1_c3 + [ tauS_c3 * z_c1_c3 ] <= 93.85
  SyncA_c1_c2_c4: 7.0 o_1 + 100.0 x_c1_c2 - tauD_c2 - 3.51 z_c1_c4 + [ tauS_c4 * z_c1_c4 ] <= 93.85
  SyncA_c1_c2_c5: 7.0 o_1 + 100.0 x_c1_c2 - tauD_c2 - 2.015 z_c1_c5 + [ tauS_c5 * z_c1_c5 ] <= 93.85
  SyncA_c1_c2_dN: 7.0 o_1 + 100.0 x_c1_c2 - tauD_c2 - 7.2675 z_c1_dN + [ tauS_dN * z_c1_dN ] <= 93.85
  SyncA_c1_c3_c2: 7.0 o_1 + 100.0 x_c1_c3 - tauD_c3 - 6.15 z_c1_c2 + [ tauS_c2 * z_c1_c2 ] <= 90.66
  SyncA_c1_c3_c3: 7.0 o_1 + 100.0 x_c1_c3 - tauD_c3 - 9.34 z_c1_c3 + [ tauS_c3 * z_c1_c3 ] <= 90.66
  SyncA_c1_c3_c4: 7.0 o_1 + 100.0 x_c1_c3 - tauD_c3 - 3.51 z_c1_c4 + [ tauS_c4 * z_c1_c4 ] <= 90.66
  SyncA_c1_c3_c5: 7.0 o_1 + 100.0 x_c1_c3 - tauD_c3 - 2.015 z_c1_c5 + [ tauS_c5 * z_c1_c5 ] <= 90.66
  SyncA_c1_c3_dN: 7.0 o_1 + 100.0 x_c1_c3 - tauD_c3 - 7.2675 z_c1_dN + [ tauS_dN * z_c1_dN ] <= 90.66
  SyncA_c1_c4_c2: 7.0 o_1 + 100.0 x_c1_c4 - tauD_c4 - 6.15 z_c1_c2 + [ tauS_c2 * z_c1_c2 ] <= 96.49
  SyncA_c1_c4_c3: 7.0 o_1 + 100.0 x_c1_c4 - tauD_c4 - 9.34 z_c1_c3 + [ tauS_c3 * z_c1_c3 ] <= 96.49
  SyncA_c1_c4_c4: 7.0 o_1 + 100.0 x_c1_c4 - tauD_c4 - 3.51 z_c1_c4 + [ tauS_c4 * z_c1_c4 ] <= 96.49
  SyncA_c1_c4_c5: 7.0 o_1 + 100.0 x_c1_c4 - tauD_c4 - 2.015 z_c1_c5 + [ tauS_c5 * z_c1_c5 ] <= 96.49
  SyncA_c1_c4_dN: 7.0 o_1 + 100.0 x_c1_c4 - tauD_c4 - 7.2675 z_c1_dN + [ tauS_dN * z_c1_dN ] <= 96.49
  SyncA_c1_c5_c2: 7.0 o_1 + 100.0 x_c1_c5 - tauD_c5 - 6.15 z_c1_c2 + [ tauS_c2 * z_c1_c2 ] <= 97.985
  SyncA_c1_c5_c3: 7.0 o_1 + 100.0 x_c1_c5 - tauD_c5 - 9.34 z_c1_c3 + [ tauS_c3 * z_c1_c3 ] <= 97.985
  SyncA_c1_c5_c4: 7.0 o_1 + 100.0 x_c1_c5 - tauD_c5 - 3.51 z_c1_c4 + [ tauS_c4 * z_c1_c4 ] <= 97.985
  SyncA_c1_c5_c5: 7.0 o_1 + 100.0 x_c1_c5 - tauD_c5 - 2.015 z_c1_c5 + [ tauS_c5 * z_c1_c5 ] <= 97.985
  SyncA_c1_c5_dN: 7.0 o_1 + 100.0 x_c1_c5 - tauD_c5 - 7.2675 z_c1_dN + [ tauS_dN * z_c1_dN ] <= 97.985
  SyncA_c1_dN_c2: 7.0 o_1 + 100.0 x_c1_dN - tauD_dN - 6.15 z_c1_c2 + [ tauS_c2 * z_c1_c2 ] <= 92.7325
  SyncA_c1_dN_c3: 7.0 o_1 + 100.0 x_c1_dN - tauD_dN - 9.34 z_c1_c3 + [ tauS_c3 * z_c1_c3 ] <= 92.7325
  SyncA_c1_dN_c4: 7.0 o_1 + 100.0 x_c1_dN - tauD_dN - 3.51 z_c1_c4 + [ tauS_c4 * z_c1_c4 ] <= 92.7325
  SyncA_c1_dN_c5: 7.0 o_1 + 100.0 x_c1_dN - tauD_dN - 2.015 z_c1_c5 + [ tauS_c5 * z_c1_c5 ] <= 92.7325
  SyncA_c1_dN_dN: 7.0 o_1 + 100.0 x_c1_dN - tauD_dN - 7.2675 z_c1_dN + [ tauS_dN * z_c1_dN ] <= 92.7325
  SyncA_c2_c1_c1: 4.0 o_2 + 100.0 x_c2_c1 - tauD_c1 - 6.15 z_c2_c1 + [ tauS_c1 * z_c2_c1 ] <= 93.85
  SyncA_c2_c1_c3: 4.0 o_2 + 100.0 x_c2_c1 - tauD_c1 - 3.51 z_c2_c3 + [ tauS_c3 * z_c2_c3 ] <= 93.85
  SyncA_c2_c1_c4: 4.0 o_2 + 100.0 x_c2_c1 - tauD_c1 - 3.2025 z_c2_c4 + [ tauS_c4 * z_c2_c4 ] <= 93.85
  SyncA_c2_c1_c5: 4.0 o_2 + 100.0 x_c2_c1 - tauD_c1 - 4.3 z_c2_c5 + [ tauS_c5 * z_c2_c5 ] <= 93.85
  SyncA_c2_c1_dN: 4.0 o_2 + 100.0 x_c2_c1 - tauD_c1 - 2.0 z_c2_dN + [ tauS_dN * z_c2_dN ] <= 93.85
  SyncA_c2_c3_c1: 4.0 o_2 + 100.0 x_c2_c3 - tauD_c3 - 6.15 z_c2_c1 + [ tauS_c1 * z_c2_c1 ] <= 96.49
  SyncA_c2_c3_c3: 4.0 o_2 + 100.0 x_c2_c3 - tauD_c3 - 3.51 z_c2_c3 + [ tauS_c3 * z_c2_c3 ] <= 96.49
  SyncA_c2_c3_c4: 4.0 o_2 + 100.0 x_c2_c3 - tauD_c3 - 3.2025 z_c2_c4 + [ tauS_c4 * z_c2_c4 ] <= 96.49
  SyncA_c2_c3_c5: 4.0 o_2 + 100.0 x_c2_c3 - tauD_c3 - 4.3 z_c2_c5 + [ tauS_c5 * z_c2_c5 ] <= 96.49
  SyncA_c2_c3_dN: 4.0 o_2 + 100.0 x_c2_c3 - tauD_c3 - 2.0 z_c2_dN + [ tauS_dN * z_c2_dN ] <= 96.49
  SyncA_c2_c4_c1: 4.0 o_2 + 100.0 x_c2_c4 - tauD_c4 - 6.15 z_c2_c1 + [ tauS_c1 * z_c2_c1 ] <= 96.7975
  SyncA_c2_c4_c3: 4.0 o_2 + 100.0 x_c2_c4 - tauD_c4 - 3.51 z_c2_c3 + [ tauS_c3 * z_c2_c3 ] <= 96.7975
  SyncA_c2_c4_c4: 4.0 o_2 + 100.0 x_c2_c4 - tauD_c4 - 3.2025 z_c2_c4 + [ tauS_c4 * z_c2_c4 ] <= 96.7975
  SyncA_c2_c4_c5: 4.0 o_2 + 100.0 x_c2_c4 - tauD_c4 - 4.3 z_c2_c5 + [ tauS_c5 * z_c2_c5 ] <= 96.7975
  SyncA_c2_c4_dN: 4.0 o_2 + 100.0 x_c2_c4 - tauD_c4 - 2.0 z_c2_dN + [ tauS_dN * z_c2_dN ] <= 96.7975
  SyncA_c2_c5_c1: 4.0 o_2 + 100.0 x_c2_c5 - tauD_c5 - 6.15 z_c2_c1 + [ tauS_c1 * z_c2_c1 ] <= 95.7
  SyncA_c2_c5_c3: 4.0 o_2 + 100.0 x_c2_c5 - tauD_c5 - 3.51 z_c2_c3 + [ tauS_c3 * z_c2_c3 ] <= 95.7
  SyncA_c2_c5_c4: 4.0 o_2 + 100.0 x_c2_c5 - tauD_c5 - 3.2025 z_c2_c4 + [ tauS_c4 * z_c2_c4 ] <= 95.7
  SyncA_c2_c5_c5: 4.0 o_2 + 100.0 x_c2_c5 - tauD_c5 - 4.3 z_c2_c5 + [ tauS_c5 * z_c2_c5 ] <= 95.7
  SyncA_c2_c5_dN: 4.0 o_2 + 100.0 x_c2_c5 - tauD_c5 - 2.0 z_c2_dN + [ tauS_dN * z_c2_dN ] <= 95.7
  SyncA_c2_dN_c1: 4.0 o_2 + 100.0 x_c2_dN - tauD_dN - 6.15 z_c2_c1 + [ tauS_c1 * z_c2_c1 ] <= 98.0
  SyncA_c2_dN_c3: 4.0 o_2 + 100.0 x_c2_dN - tauD_dN - 3.51 z_c2_c3 + [ tauS_c3 * z_c2_c3 ] <= 98.0
  SyncA_c2_dN_c4: 4.0 o_2 + 100.0 x_c2_dN - tauD_dN - 3.2025 z_c2_c4 + [ tauS_c4 * z_c2_c4 ] <= 98.0
  SyncA_c2_dN_c5: 4.0 o_2 + 100.0 x_c2_dN - tauD_dN - 4.3 z_c2_c5 + [ tauS_c5 * z_c2_c5 ] <= 98.0
  SyncA_c2_dN_dN: 4.0 o_2 + 100.0 x_c2_dN - tauD_dN - 2.0 z_c2_dN + [ tauS_dN * z_c2_dN ] <= 98.0
  SyncA_c3_c1_c1: 4.0 o_3 + 100.0 x_c3_c1 - tauD_c1 - 9.34 z_c3_c1 + [ tauS_c1 * z_c3_c1 ] <= 90.66
  SyncA_c3_c1_c2: 4.0 o_3 + 100.0 x_c3_c1 - tauD_c1 - 3.51 z_c3_c2 + [ tauS_c2 * z_c3_c2 ] <= 90.66
  SyncA_c3_c1_c4: 4.0 o_3 + 100.0 x_c3_c1 - tauD_c1 - 5.9425 z_c3_c4 + [ tauS_c4 * z_c3_c4 ] <= 90.66
  SyncA_c3_c1_c5: 4.0 o_3 + 100.0 x_c3_c1 - tauD_c1 - 7.3525 z_c3_c5 + [ tauS_c5 * z_c3_c5 ] <= 90.66
  SyncA_c3_c1_dN: 4.0 o_3 + 100.0 x_c3_c1 - tauD_c1 - 4.16 z_c3_dN + [ tauS_dN * z_c3_dN ] <= 90.66
  SyncA_c3_c2_c1: 4.0 o_3 + 100.0 x_c3_c2 - tauD_c2 - 9.34 z_c3_c1 + [ tauS_c1 * z_c3_c1 ] <= 96.49
  SyncA_c3_c2_c2: 4.0 o_3 + 100.0 x_c3_c2 - tauD_c2 - 3.51 z_c3_c2 + [ tauS_c2 * z_c3_c2 ] <= 96.49
  SyncA_c3_c2_c4: 4.0 o_3 + 100.0 x_c3_c2 - tauD_c2 - 5.9425 z_c3_c4 + [ tauS_c4 * z_c3_c4 ] <= 96.49
  SyncA_c3_c2_c5: 4.0 o_3 + 100.0 x_c3_c2 - tauD_c2 - 7.3525 z_c3_c5 + [ tauS_c5 * z_c3_c5 ] <= 96.49
  SyncA_c3_c2_dN: 4.0 o_3 + 100.0 x_c3_c2 - tauD_c2 - 4.16 z_c3_dN + [ tauS_dN * z_c3_dN ] <= 96.49
  SyncA_c3_c4_c1: 4.0 o_3 + 100.0 x_c3_c4 - tauD_c4 - 9.34 z_c3_c1 + [ tauS_c1 * z_c3_c1 ] <= 94.0575
  SyncA_c3_c4_c2: 4.0 o_3 + 100.0 x_c3_c4 - tauD_c4 - 3.51 z_c3_c2 + [ tauS_c2 * z_c3_c2 ] <= 94.0575
  SyncA_c3_c4_c4: 4.0 o_3 + 100.0 x_c3_c4 - tauD_c4 - 5.9425 z_c3_c4 + [ tauS_c4 * z_c3_c4 ] <= 94.0575
  SyncA_c3_c4_c5: 4.0 o_3 + 100.0 x_c3_c4 - tauD_c4 - 7.3525 z_c3_c5 + [ tauS_c5 * z_c3_c5 ] <= 94.0575
  SyncA_c3_c4_dN: 4.0 o_3 + 100.0 x_c3_c4 - tauD_c4 - 4.16 z_c3_dN + [ tauS_dN * z_c3_dN ] <= 94.0575
  SyncA_c3_c5_c1: 4.0 o_3 + 100.0 x_c3_c5 - tauD_c5 - 9.34 z_c3_c1 + [ tauS_c1 * z_c3_c1 ] <= 92.6475
  SyncA_c3_c5_c2: 4.0 o_3 + 100.0 x_c3_c5 - tauD_c5 - 3.51 z_c3_c2 + [ tauS_c2 * z_c3_c2 ] <= 92.6475
  SyncA_c3_c5_c4: 4.0 o_3 + 100.0 x_c3_c5 - tauD_c5 - 5.9425 z_c3_c4 + [ tauS_c4 * z_c3_c4 ] <= 92.6475
  SyncA_c3_c5_c5: 4.0 o_3 + 100.0 x_c3_c5 - tauD_c5 - 7.3525 z_c3_c5 + [ tauS_c5 * z_c3_c5 ] <= 92.6475
  SyncA_c3_c5_dN: 4.0 o_3 + 100.0 x_c3_c5 - tauD_c5 - 4.16 z_c3_dN + [ tauS_dN * z_c3_dN ] <= 92.6475
  SyncA_c3_dN_c1: 4.0 o_3 + 100.0 x_c3_dN - tauD_dN - 9.34 z_c3_c1 + [ tauS_c1 * z_c3_c1 ] <= 95.84
  SyncA_c3_dN_c2: 4.0 o_3 + 100.0 x_c3_dN - tauD_dN - 3.51 z_c3_c2 + [ tauS_c2 * z_c3_c2 ] <= 95.84
  SyncA_c3_dN_c4: 4.0 o_3 + 100.0 x_c3_dN - tauD_dN - 5.9425 z_c3_c4 + [ tauS_c4 * z_c3_c4 ] <= 95.84
  SyncA_c3_dN_c5: 4.0 o_3 + 100.0 x_c3_dN - tauD_dN - 7.3525 z_c3_c5 + [ tauS_c5 * z_c3_c5 ] <= 95.84
  SyncA_c3_dN_dN: 4.0 o_3 + 100.0 x_c3_dN - tauD_dN - 4.16 z_c3_dN + [ tauS_dN * z_c3_dN ] <= 95.84
  SyncA_c4_c1_c1: 8.0 o_4 + 100.0 x_c4_c1 - tauD_c1 - 3.51 z_c4_c1 + [ tauS_c1 * z_c4_c1 ] <= 96.49
  SyncA_c4_c1_c2: 8.0 o_4 + 100.0 x_c4_c1 - tauD_c1 - 3.2025 z_c4_c2 + [ tauS_c2 * z_c4_c2 ] <= 96.49
  SyncA_c4_c1_c3: 8.0 o_4 + 100.0 x_c4_c1 - tauD_c1 - 5.9425 z_c4_c3 + [ tauS_c3 * z_c4_c3 ] <= 96.49
  SyncA_c4_c1_c5: 8.0 o_4 + 100.0 x_c4_c1 - tauD_c1 - 1.5 z_c4_c5 + [ tauS_c5 * z_c4_c5 ] <= 96.49
  SyncA_c4_c1_dN: 8.0 o_4 + 100.0 x_c4_c1 - tauD_c1 - 4.925 z_c4_dN + [ tauS_dN * z_c4_dN ] <= 96.49
  SyncA_c4_c2_c1: 8.0 o_4 + 100.0 x_c4_c2 - tauD_c2 - 3.51 z_c4_c1 + [ tauS_c1 * z_c4_c1 ] <= 96.7975
  SyncA_c4_c2_c2: 8.0 o_4 + 100.0 x_c4_c2 - tauD_c2 - 3.2025 z_c4_c2 + [ tauS_c2 * z_c4_c2 ] <= 96.7975
  SyncA_c4_c2_c3: 8.0 o_4 + 100.0 x_c4_c2 - tauD_c2 - 5.9425 z_c4_c3 + [ tauS_c3 * z_c4_c3 ] <= 96.7975
  SyncA_c4_c2_c5: 8.0 o_4 + 100.0 x_c4_c2 - tauD_c2 - 1.5 z_c4_c5 + [ tauS_c5 * z_c4_c5 ] <= 96.7975
  SyncA_c4_c2_dN: 8.0 o_4 + 100.0 x_c4_c2 - tauD_c2 - 4.925 z_c4_dN + [ tauS_dN * z_c4_dN ] <= 96.7975
  SyncA_c4_c3_c1: 8.0 o_4 + 100.0 x_c4_c3 - tauD_c3 - 3.51 z_c4_c1 + [ tauS_c1 * z_c4_c1 ] <= 94.0575
  SyncA_c4_c3_c2: 8.0 o_4 + 100.0 x_c4_c3 - tauD_c3 - 3.2025 z_c4_c2 + [ tauS_c2 * z_c4_c2 ] <= 94.0575
  SyncA_c4_c3_c3: 8.0 o_4 + 100.0 x_c4_c3 - tauD_c3 - 5.9425 z_c4_c3 + [ tauS_c3 * z_c4_c3 ] <= 94.0575
  SyncA_c4_c3_c5: 8.0 o_4 + 100.0 x_c4_c3 - tauD_c3 - 1.5 z_c4_c5 + [ tauS_c5 * z_c4_c5 ] <= 94.0575
  SyncA_c4_c3_dN: 8.0 o_4 + 100.0 x_c4_c3 - tauD_c3 - 4.925 z_c4_dN + [ tauS_dN * z_c4_dN ] <= 94.0575
  SyncA_c4_c5_c1: 8.0 o_4 + 100.0 x_c4_c5 - tauD_c5 - 3.51 z_c4_c1 + [ tauS_c1 * z_c4_c1 ] <= 98.5
  SyncA_c4_c5_c2: 8.0 o_4 + 100.0 x_c4_c5 - tauD_c5 - 3.2025 z_c4_c2 + [ tauS_c2 * z_c4_c2 ] <= 98.5
  SyncA_c4_c5_c3: 8.0 o_4 + 100.0 x_c4_c5 - tauD_c5 - 5.9425 z_c4_c3 + [ tauS_c3 * z_c4_c3 ] <= 98.5
  SyncA_c4_c5_c5: 8.0 o_4 + 100.0 x_c4_c5 - tauD_c5 - 1.5 z_c4_c5 + [ tauS_c5 * z_c4_c5 ] <= 98.5
  SyncA_c4_c5_dN: 8.0 o_4 + 100.0 x_c4_c5 - tauD_c5 - 4.925 z_c4_dN + [ tauS_dN * z_c4_dN ] <= 98.5
  SyncA_c4_dN_c1: 8.0 o_4 + 100.0 x_c4_dN - tauD_dN - 3.51 z_c4_c1 + [ tauS_c1 * z_c4_c1 ] <= 95.075
  SyncA_c4_dN_c2: 8.0 o_4 + 100.0 x_c4_dN - tauD_dN - 3.2025 z_c4_c2 + [ tauS_c2 * z_c4_c2 ] <= 95.075
  SyncA_c4_dN_c3: 8.0 o_4 + 100.0 x_c4_dN - tauD_dN - 5.9425 z_c4_c3 + [ tauS_c3 * z_c4_c3 ] <= 95.075
  SyncA_c4_dN_c5: 8.0 o_4 + 100.0 x_c4_dN - tauD_dN - 1.5 z_c4_c5 + [ tauS_c5 * z_c4_c5 ] <= 95.075
  SyncA_c4_dN_dN: 8.0 o_4 + 100.0 x_c4_dN - tauD_dN - 4.925 z_c4_dN + [ tauS_dN * z_c4_dN ] <= 95.075
  SyncA_c5_c1_c1: 6.0 o_5 + 100.0 x_c5_c1 - tauD_c1 - 2.015 z_c5_c1 + [ tauS_c1 * z_c5_c1 ] <= 97.985
  SyncA_c5_c1_c2: 6.0 o_5 + 100.0 x_c5_c1 - tauD_c1 - 4.3 z_c5_c2 + [ tauS_c2 * z_c5_c2 ] <= 97.985
  SyncA_c5_c1_c3: 6.0 o_5 + 100.0 x_c5_c1 - tauD_c1 - 7.3525 z_c5_c3 + [ tauS_c3 * z_c5_c3 ] <= 97.985
  SyncA_c5_c1_c4: 6.0 o_5 + 100.0 x_c5_c1 - tauD_c1 - 1.5 z_c5_c4 + [ tauS_c4 * z_c5_c4 ] <= 97.985
  SyncA_c5_c1_dN: 6.0 o_5 + 100.0 x_c5_c1 - tauD_c1 - 5.7 z_c5_dN + [ tauS_dN * z_c5_dN ] <= 97.985
  SyncA_c5_c2_c1: 6.0 o_5 + 100.0 x_c5_c2 - tauD_c2 - 2.015 z_c5_c1 + [ tauS_c1 * z_c5_c1 ] <= 95.7
  SyncA_c5_c2_c2: 6.0 o_5 + 100.0 x_c5_c2 - tauD_c2 - 4.3 z_c5_c2 + [ tauS_c2 * z_c5_c2 ] <= 95.7
  SyncA_c5_c2_c3: 6.0 o_5 + 100.0 x_c5_c2 - tauD_c2 - 7.3525 z_c5_c3 + [ tauS_c3 * z_c5_c3 ] <= 95.7
  SyncA_c5_c2_c4: 6.0 o_5 + 100.0 x_c5_c2 - tauD_c2 - 1.5 z_c5_c4 + [ tauS_c4 * z_c5_c4 ] <= 95.7
  SyncA_c5_c2_dN: 6.0 o_5 + 100.0 x_c5_c2 - tauD_c2 - 5.7 z_c5_dN + [ tauS_dN * z_c5_dN ] <= 95.7
  SyncA_c5_c3_c1: 6.0 o_5 + 100.0 x_c5_c3 - tauD_c3 - 2.015 z_c5_c1 + [ tauS_c1 * z_c5_c1 ] <= 92.6475
  SyncA_c5_c3_c2: 6.0 o_5 + 100.0 x_c5_c3 - tauD_c3 - 4.3 z_c5_c2 + [ tauS_c2 * z_c5_c2 ] <= 92.6475
  SyncA_c5_c3_c3: 6.0 o_5 + 100.0 x_c5_c3 - tauD_c3 - 7.3525 z_c5_c3 + [ tauS_c3 * z_c5_c3 ] <= 92.6475
  SyncA_c5_c3_c4: 6.0 o_5 + 100.0 x_c5_c3 - tauD_c3 - 1.5 z_c5_c4 + [ tauS_c4 * z_c5_c4 ] <= 92.6475
  SyncA_c5_c3_dN: 6.0 o_5 + 100.0 x_c5_c3 - tauD_c3 - 5.7 z_c5_dN + [ tauS_dN * z_c5_dN ] <= 92.6475
  SyncA_c5_c4_c1: 6.0 o_5 + 100.0 x_c5_c4 - tauD_c4 - 2.015 z_c5_c1 + [ tauS_c1 * z_c5_c1 ] <= 98.5
  SyncA_c5_c4_c2: 6.0 o_5 + 100.0 x_c5_c4 - tauD_c4 - 4.3 z_c5_c2 + [ tauS_c2 * z_c5_c2 ] <= 98.5
  SyncA_c5_c4_c3: 6.0 o_5 + 100.0 x_c5_c4 - tauD_c4 - 7.3525 z_c5_c3 + [ tauS_c3 * z_c5_c3 ] <= 98.5
  SyncA_c5_c4_c4: 6.0 o_5 + 100.0 x_c5_c4 - tauD_c4 - 1.5 z_c5_c4 + [ tauS_c4 * z_c5_c4 ] <= 98.5
  SyncA_c5_c4_dN: 6.0 o_5 + 100.0 x_c5_c4 - tauD_c4 - 5.7 z_c5_dN + [ tauS_dN * z_c5_dN ] <= 98.5
  SyncA_c5_dN_c1: 6.0 o_5 + 100.0 x_c5_dN - tauD_dN - 2.015 z_c5_c1 + [ tauS_c1 * z_c5_c1 ] <= 94.3
  SyncA_c5_dN_c2: 6.0 o_5 + 100.0 x_c5_dN - tauD_dN - 4.3 z_c5_c2 + [ tauS_c2 * z_c5_c2 ] <= 94.3
  SyncA_c5_dN_c3: 6.0 o_5 + 100.0 x_c5_dN - tauD_dN - 7.3525 z_c5_c3 + [ tauS_c3 * z_c5_c3 ] <= 94.3
  SyncA_c5_dN_c4: 6.0 o_5 + 100.0 x_c5_dN - tauD_dN - 1.5 z_c5_c4 + [ tauS_c4 * z_c5_c4 ] <= 94.3
  SyncA_c5_dN_dN: 6.0 o_5 + 100.0 x_c5_dN - tauD_dN - 5.7 z_c5_dN + [ tauS_dN * z_c5_dN ] <= 94.3
  SVFirst_c1_c2: tauS_c2 - tauD_c1 + 7.0 o_1 - 100.0 z_c1_c2 >= -78.85
  SVFirst_c1_c3: tauS_c3 - tauD_c1 + 7.0 o_1 - 100.0 z_c1_c3 >= -75.66
  SVFirst_c1_c4: tauS_c4 - tauD_c1 + 7.0 o_1 - 100.0 z_c1_c4 >= -81.49
  SVFirst_c1_c5: tauS_c5 - tauD_c1 + 7.0 o_1 - 100.0 z_c1_c5 >= -82.985
  SVFirst_c1_dN:  tauS_dN - tauD_c1 + 7.0 o_1 - 100.0 z_c1_dN >= -77.7325
  SVFirst_c2_c1: tauS_c1 - tauD_c2 + 4.0 o_2 - 100.0 z_c2_c1 >= -81.85
  SVFirst_c2_c3: tauS_c3 - tauD_c2 + 4.0 o_2 - 100.0 z_c2_c3 >= -84.49
  SVFirst_c2_c4: tauS_c4 - tauD_c2 + 4.0 o_2 - 100.0 z_c2_c4 >= -84.7975
  SVFirst_c2_c5: tauS_c5 - tauD_c2 + 4.0 o_2 - 100.0 z_c2_c5 >= -83.7
  SVFirst_c2_dN:  tauS_dN - tauD_c2 + 4.0 o_2 - 100.0 z_c2_dN >= -86.0
  SVFirst_c3_c1: tauS_c1 - tauD_c3 + 4.0 o_3 - 100.0 z_c3_c1 >= -78.66
  SVFirst_c3_c2: tauS_c2 - tauD_c3 + 4.0 o_3 - 100.0 z_c3_c2 >= -84.49
  SVFirst_c3_c4: tauS_c4 - tauD_c3 + 4.0 o_3 - 100.0 z_c3_c4 >= -82.0575
  SVFirst_c3_c5: tauS_c5 - tauD_c3 + 4.0 o_3 - 100.0 z_c3_c5 >= -80.64750000000001
  SVFirst_c3_dN:  tauS_dN - tauD_c3 + 4.0 o_3 - 100.0 z_c3_dN >= -83.84
  SVFirst_c4_c1: tauS_c1 - tauD_c4 + 8.0 o_4 - 100.0 z_c4_c1 >= -80.49
  SVFirst_c4_c2: tauS_c2 - tauD_c4 + 8.0 o_4 - 100.0 z_c4_c2 >= -80.7975
  SVFirst_c4_c3: tauS_c3 - tauD_c4 + 8.0 o_4 - 100.0 z_c4_c3 >= -78.0575
  SVFirst_c4_c5: tauS_c5 - tauD_c4 + 8.0 o_4 - 100.0 z_c4_c5 >= -82.5
  SVFirst_c4_dN:  tauS_dN - tauD_c4 + 8.0 o_4 - 100.0 z_c4_dN >= -79.075
  SVFirst_c5_c1: tauS_c1 - tauD_c5 + 6.0 o_5 - 100.0 z_c5_c1 >= -83.985
  SVFirst_c5_c2: tauS_c2 - tauD_c5 + 6.0 o_5 - 100.0 z_c5_c2 >= -81.7
  SVFirst_c5_c3: tauS_c3 - tauD_c5 + 6.0 o_5 - 100.0 z_c5_c3 >= -78.64750000000001
  SVFirst_c5_c4: tauS_c4 - tauD_c5 + 6.0 o_5 - 100.0 z_c5_c4 >= -84.5
  SVFirst_c5_dN:  tauS_dN - tauD_c5 + 6.0 o_5 - 100.0 z_c5_dN >= -80.3
  Precedence_Swap_c1:  p_1 - z_d0_c1 - z_c2_c1 - z_c3_c1 - z_c4_c1 - z_c5_c1 = 0
  Precedence_Swap_c2:  p_2 - z_d0_c2 - z_c1_c2 - z_c3_c2 - z_c4_c2 - z_c5_c2 = 0
  Precedence_Swap_c3:  p_3 - z_d0_c3 - z_c1_c3 - z_c2_c3 - z_c4_c3 - z_c5_c3 = 0
  Precedence_Swap_c4:  p_4 - z_d0_c4 - z_c1_c4 - z_c2_c4 - z_c3_c4 - z_c5_c4 = 0
  Precedence_Swap_c5:  p_5 - z_d0_c5 - z_c1_c5 - z_c2_c5 - z_c3_c5 - z_c4_c5 = 0
  Order_c1:  o_1 - p_1 <= 0
  Order_c2:  o_2 - p_2 <= 0
  Order_c3:  o_3 - p_3 <= 0
  Order_c4:  o_4 - p_4 <= 0
  Order_c5:  o_5 - p_5 <= 0
  WorkingTimeS_c1:  tauS_c1 <= 84.7325
  WorkingTimeS_c2:  tauS_c2 <= 90.0
  WorkingTimeS_c3:  tauS_c3 <= 87.84
  WorkingTimeS_c4:  tauS_c4 <= 87.075
  WorkingTimeS_c5:  tauS_c5 <= 86.3
  FreightDV_c1_c2:  k_c2 - kDash_c1 - 10.0 p_1 + 10.0 x_c1_c2 + [ kDash_c1 * p_1 - kDash_c1 * o_1 + 10.0 p_1 * o_1 ] <= 10.0
  FreightDV_c1_c3:  k_c3 - kDash_c1 - 10.0 p_1 + 10.0 x_c1_c3 + [ kDash_c1 * p_1 - kDash_c1 * o_1 + 10.0 p_1 * o_1 ] <= 10.0
  FreightDV_c1_c4:  k_c4 - kDash_c1 - 10.0 p_1 + 10.0 x_c1_c4 + [ kDash_c1 * p_1 - kDash_c1 * o_1 + 10.0 p_1 * o_1 ] <= 10.0
  FreightDV_c1_c5:  k_c5 - kDash_c1 - 10.0 p_1 + 10.0 x_c1_c5 + [ kDash_c1 * p_1 - kDash_c1 * o_1 + 10.0 p_1 * o_1 ] <= 10.0
  FreightDV_c1_dN:  k_dN - kDash_c1 - 10.0 p_1 + 10.0 x_c1_dN + [ kDash_c1 * p_1 - kDash_c1 * o_1 + 10.0 p_1 * o_1 ] <= 10.0
  FreightDV_c1:  kDash_c1 - k_c1 - 10.0 o_1 + [ k_c1 * o_1 ] <= -4.0
  FreightDV_c2_c1:  k_c1 - kDash_c2 - 10.0 p_2 + 10.0 x_c2_c1 + [ kDash_c2 * p_2 - kDash_c2 * o_2 + 10.0 p_2 * o_2 ] <= 10.0
  FreightDV_c2_c3:  k_c3 - kDash_c2 - 10.0 p_2 + 10.0 x_c2_c3 + [ kDash_c2 * p_2 - kDash_c2 * o_2 + 10.0 p_2 * o_2 ] <= 10.0
  FreightDV_c2_c4:  k_c4 - kDash_c2 - 10.0 p_2 + 10.0 x_c2_c4 + [ kDash_c2 * p_2 - kDash_c2 * o_2 + 10.0 p_2 * o_2 ] <= 10.0
  FreightDV_c2_c5:  k_c5 - kDash_c2 - 10.0 p_2 + 10.0 x_c2_c5 + [ kDash_c2 * p_2 - kDash_c2 * o_2 + 10.0 p_2 * o_2 ] <= 10.0
  FreightDV_c2_dN:  k_dN - kDash_c2 - 10.0 p_2 + 10.0 x_c2_dN + [ kDash_c2 * p_2 - kDash_c2 * o_2 + 10.0 p_2 * o_2 ] <= 10.0
  FreightDV_c2:  kDash_c2 - k_c2 - 10.0 o_2 + [ k_c2 * o_2 ] <= -5.0
  FreightDV_c3_c1:  k_c1 - kDash_c3 - 10.0 p_3 + 10.0 x_c3_c1 + [ kDash_c3 * p_3 - kDash_c3 * o_3 + 10.0 p_3 * o_3 ] <= 10.0
  FreightDV_c3_c2:  k_c2 - kDash_c3 - 10.0 p_3 + 10.0 x_c3_c2 + [ kDash_c3 * p_3 - kDash_c3 * o_3 + 10.0 p_3 * o_3 ] <= 10.0
  FreightDV_c3_c4:  k_c4 - kDash_c3 - 10.0 p_3 + 10.0 x_c3_c4 + [ kDash_c3 * p_3 - kDash_c3 * o_3 + 10.0 p_3 * o_3 ] <= 10.0
  FreightDV_c3_c5:  k_c5 - kDash_c3 - 10.0 p_3 + 10.0 x_c3_c5 + [ kDash_c3 * p_3 - kDash_c3 * o_3 + 10.0 p_3 * o_3 ] <= 10.0
  FreightDV_c3_dN:  k_dN - kDash_c3 - 10.0 p_3 + 10.0 x_c3_dN + [ kDash_c3 * p_3 - kDash_c3 * o_3 + 10.0 p_3 * o_3 ] <= 10.0
  FreightDV_c3:  kDash_c3 - k_c3 - 10.0 o_3 + [ k_c3 * o_3 ] <= -3.0
  FreightDV_c4_c1:  k_c1 - kDash_c4 - 10.0 p_4 + 10.0 x_c4_c1 + [ kDash_c4 * p_4 - kDash_c4 * o_4 + 10.0 p_4 * o_4 ] <= 10.0
  FreightDV_c4_c2:  k_c2 - kDash_c4 - 10.0 p_4 + 10.0 x_c4_c2 + [ kDash_c4 * p_4 - kDash_c4 * o_4 + 10.0 p_4 * o_4 ] <= 10.0
  FreightDV_c4_c3:  k_c3 - kDash_c4 - 10.0 p_4 + 10.0 x_c4_c3 + [ kDash_c4 * p_4 - kDash_c4 * o_4 + 10.0 p_4 * o_4 ] <= 10.0
  FreightDV_c4_c5:  k_c5 - kDash_c4 - 10.0 p_4 + 10.0 x_c4_c5 + [ kDash_c4 * p_4 - kDash_c4 * o_4 + 10.0 p_4 * o_4 ] <= 10.0
  FreightDV_c4_dN:  k_dN - kDash_c4 - 10.0 p_4 + 10.0 x_c4_dN + [ kDash_c4 * p_4 - kDash_c4 * o_4 + 10.0 p_4 * o_4 ] <= 10.0
  FreightDV_c4:  kDash_c4 - k_c4 - 10.0 o_4 + [ k_c4 * o_4 ] <= -7.0
  FreightDV_c5_c1:  k_c1 - kDash_c5 - 10.0 p_5 + 10.0 x_c5_c1 + [ kDash_c5 * p_5 - kDash_c5 * o_5 + 10.0 p_5 * o_5 ] <= 10.0
  FreightDV_c5_c2:  k_c2 - kDash_c5 - 10.0 p_5 + 10.0 x_c5_c2 + [ kDash_c5 * p_5 - kDash_c5 * o_5 + 10.0 p_5 * o_5 ] <= 10.0
  FreightDV_c5_c3:  k_c3 - kDash_c5 - 10.0 p_5 + 10.0 x_c5_c3 + [ kDash_c5 * p_5 - kDash_c5 * o_5 + 10.0 p_5 * o_5 ] <= 10.0
  FreightDV_c5_c4:  k_c4 - kDash_c5 - 10.0 p_5 + 10.0 x_c5_c4 + [ kDash_c5 * p_5 - kDash_c5 * o_5 + 10.0 p_5 * o_5 ] <= 10.0
  FreightDV_c5_dN:  k_dN - kDash_c5 - 10.0 p_5 + 10.0 x_c5_dN + [ kDash_c5 * p_5 - kDash_c5 * o_5 + 10.0 p_5 * o_5 ] <= 10.0
  FreightDV_c5:  kDash_c5 - k_c5 - 10.0 o_5 + [ k_c5 * o_5 ] <= -2.0
  FreightSV_c1_c2:  pi_c2 - pi_c1 - kDash_c1 + 20.0 z_c1_c2 + [ kDash_c1 * o_1 - k_c1 * o_1 ] <= 10.0
  FreightSV_c1_c3:  pi_c3 - pi_c1 - kDash_c1 + 20.0 z_c1_c3 + [ kDash_c1 * o_1 - k_c1 * o_1 ] <= 10.0
  FreightSV_c1_c4:  pi_c4 - pi_c1 - kDash_c1 + 20.0 z_c1_c4 + [ kDash_c1 * o_1 - k_c1 * o_1 ] <= 10.0
  FreightSV_c1_c5:  pi_c5 - pi_c1 - kDash_c1 + 20.0 z_c1_c5 + [ kDash_c1 * o_1 - k_c1 * o_1 ] <= 10.0
  FreightSV_c1_dN:  pi_dN - pi_c1 - kDash_c1 + 20.0 z_c1_dN + [ kDash_c1 * o_1 - k_c1 * o_1 ] <= 10.0
  FreightSV_c2_c1:  pi_c1 - pi_c2 - kDash_c2 + 20.0 z_c2_c1 + [ kDash_c2 * o_2 - k_c2 * o_2 ] <= 10.0
  FreightSV_c2_c3:  pi_c3 - pi_c2 - kDash_c2 + 20.0 z_c2_c3 + [ kDash_c2 * o_2 - k_c2 * o_2 ] <= 10.0
  FreightSV_c2_c4:  pi_c4 - pi_c2 - kDash_c2 + 20.0 z_c2_c4 + [ kDash_c2 * o_2 - k_c2 * o_2 ] <= 10.0
  FreightSV_c2_c5:  pi_c5 - pi_c2 - kDash_c2 + 20.0 z_c2_c5 + [ kDash_c2 * o_2 - k_c2 * o_2 ] <= 10.0
  FreightSV_c2_dN:  pi_dN - pi_c2 - kDash_c2 + 20.0 z_c2_dN + [ kDash_c2 * o_2 - k_c2 * o_2 ] <= 10.0
  FreightSV_c3_c1:  pi_c1 - pi_c3 - kDash_c3 + 20.0 z_c3_c1 + [ kDash_c3 * o_3 - k_c3 * o_3 ] <= 10.0
  FreightSV_c3_c2:  pi_c2 - pi_c3 - kDash_c3 + 20.0 z_c3_c2 + [ kDash_c3 * o_3 - k_c3 * o_3 ] <= 10.0
  FreightSV_c3_c4:  pi_c4 - pi_c3 - kDash_c3 + 20.0 z_c3_c4 + [ kDash_c3 * o_3 - k_c3 * o_3 ] <= 10.0
  FreightSV_c3_c5:  pi_c5 - pi_c3 - kDash_c3 + 20.0 z_c3_c5 + [ kDash_c3 * o_3 - k_c3 * o_3 ] <= 10.0
  FreightSV_c3_dN:  pi_dN - pi_c3 - kDash_c3 + 20.0 z_c3_dN + [ kDash_c3 * o_3 - k_c3 * o_3 ] <= 10.0
  FreightSV_c4_c1:  pi_c1 - pi_c4 - kDash_c4 + 20.0 z_c4_c1 + [ kDash_c4 * o_4 - k_c4 * o_4 ] <= 10.0
  FreightSV_c4_c2:  pi_c2 - pi_c4 - kDash_c4 + 20.0 z_c4_c2 + [ kDash_c4 * o_4 - k_c4 * o_4 ] <= 10.0
  FreightSV_c4_c3:  pi_c3 - pi_c4 - kDash_c4 + 20.0 z_c4_c3 + [ kDash_c4 * o_4 - k_c4 * o_4 ] <= 10.0
  FreightSV_c4_c5:  pi_c5 - pi_c4 - kDash_c4 + 20.0 z_c4_c5 + [ kDash_c4 * o_4 - k_c4 * o_4 ] <= 10.0
  FreightSV_c4_dN:  pi_dN - pi_c4 - kDash_c4 + 20.0 z_c4_dN + [ kDash_c4 * o_4 - k_c4 * o_4 ] <= 10.0
  FreightSV_c5_c1:  pi_c1 - pi_c5 - kDash_c5 + 20.0 z_c5_c1 + [ kDash_c5 * o_5 - k_c5 * o_5 ] <= 10.0
  FreightSV_c5_c2:  pi_c2 - pi_c5 - kDash_c5 + 20.0 z_c5_c2 + [ kDash_c5 * o_5 - k_c5 * o_5 ] <= 10.0
  FreightSV_c5_c3:  pi_c3 - pi_c5 - kDash_c5 + 20.0 z_c5_c3 + [ kDash_c5 * o_5 - k_c5 * o_5 ] <= 10.0
  FreightSV_c5_c4:  pi_c4 - pi_c5 - kDash_c5 + 20.0 z_c5_c4 + [ kDash_c5 * o_5 - k_c5 * o_5 ] <= 10.0
  FreightSV_c5_dN:  pi_dN - pi_c5 - kDash_c5 + 20.0 z_c5_dN + [ kDash_c5 * o_5 - k_c5 * o_5 ] <= 10.0
  FuelDV_d0_c1:  phi_c1 - phi_d0 + 13.9448 x_d0_c1 <= 12.0
  FuelDV_d0_c2:  phi_c2 - phi_d0 + 12.5352 x_d0_c2 <= 12.0
  FuelDV_d0_c3:  phi_c3 - phi_d0 + 13.113199999999999 x_d0_c3 <= 12.0
  FuelDV_d0_c4:  phi_c4 - phi_d0 + 13.3179 x_d0_c4 <= 12.0
  FuelDV_d0_c5:  phi_c5 - phi_d0 + 13.5253 x_d0_c5 <= 12.0
  FuelDV_c1_c2:  phi_c2 - phi_c1 + 13.6457 x_c1_c2 <= 12.0
  FuelDV_c1_c3:  phi_c3 - phi_c1 + 14.4994 x_c1_c3 <= 12.0
  FuelDV_c1_c4:  phi_c4 - phi_c1 + 12.9393 x_c1_c4 <= 12.0
  FuelDV_c1_c5:  phi_c5 - phi_c1 + 12.5392 x_c1_c5 <= 12.0
  FuelDV_c1_dN:  phi_dN - phi_c1 + 13.9448 x_c1_dN <= 12.0
  FuelDV_c2_c1:  phi_c1 - phi_c2 + 13.6457 x_c2_c1 <= 12.0
  FuelDV_c2_c3:  phi_c3 - phi_c2 + 12.9393 x_c2_c3 <= 12.0
  FuelDV_c2_c4:  phi_c4 - phi_c2 + 12.857 x_c2_c4 <= 12.0
  FuelDV_c2_c5:  phi_c5 - phi_c2 + 13.1507 x_c2_c5 <= 12.0
  FuelDV_c2_dN:  phi_dN - phi_c2 + 12.5352 x_c2_dN <= 12.0
  FuelDV_c3_c1:  phi_c1 - phi_c3 + 14.4994 x_c3_c1 <= 12.0
  FuelDV_c3_c2:  phi_c2 - phi_c3 + 12.9393 x_c3_c2 <= 12.0
  FuelDV_c3_c4:  phi_c4 - phi_c3 + 13.5902 x_c3_c4 <= 12.0
  FuelDV_c3_c5:  phi_c5 - phi_c3 + 13.9675 x_c3_c5 <= 12.0
  FuelDV_c3_dN:  phi_dN - phi_c3 + 13.113199999999999 x_c3_dN <= 12.0
  FuelDV_c4_c1:  phi_c1 - phi_c4 + 12.9393 x_c4_c1 <= 12.0
  FuelDV_c4_c2:  phi_c2 - phi_c4 + 12.857 x_c4_c2 <= 12.0
  FuelDV_c4_c3:  phi_c3 - phi_c4 + 13.5902 x_c4_c3 <= 12.0
  FuelDV_c4_c5:  phi_c5 - phi_c4 + 12.4014 x_c4_c5 <= 12.0
  FuelDV_c4_dN:  phi_dN - phi_c4 + 13.3179 x_c4_dN <= 12.0
  FuelDV_c5_c1:  phi_c1 - phi_c5 + 12.5392 x_c5_c1 <= 12.0
  FuelDV_c5_c2:  phi_c2 - phi_c5 + 13.1507 x_c5_c2 <= 12.0
  FuelDV_c5_c3:  phi_c3 - phi_c5 + 13.9675 x_c5_c3 <= 12.0
  FuelDV_c5_c4:  phi_c4 - phi_c5 + 12.4014 x_c5_c4 <= 12.0
  FuelDV_c5_dN:  phi_dN - phi_c5 + 13.5253 x_c5_dN <= 12.0
  WorkingTimeD_c1:  tauD_c1 + 8.0 p_1 <= 85.7325
  WorkingTimeD_c2:  tauD_c2 + 8.0 p_2 <= 94.0
  WorkingTimeD_c3:  tauD_c3 + 8.0 p_3 <= 91.84
  WorkingTimeD_c4:  tauD_c4 + 8.0 p_4 <= 87.075
  WorkingTimeD_c5:  tauD_c5 + 8.0 p_5 <= 88.3
Bounds
0 <= kDash_c1 <= 10.0
0 <= kDash_c2 <= 10.0
0 <= kDash_c3 <= 10.0
0 <= kDash_c4 <= 10.0
0 <= kDash_c5 <= 10.0
0 <= kDash_dN <= 10.0
0 <= k_c1 <= 10.0
0 <= k_c2 <= 10.0
0 <= k_c3 <= 10.0
0 <= k_c4 <= 10.0
0 <= k_c5 <= 10.0
0 <= k_dN <= 10.0
0 <= phi_c1 <= 12.0
0 <= phi_c2 <= 12.0
0 <= phi_c3 <= 12.0
0 <= phi_c4 <= 12.0
0 <= phi_c5 <= 12.0
0 <= phi_d0 <= 12.0
0 <= phi_dN <= 12.0
0 <= pi_c1 <= 50.0
0 <= pi_c2 <= 50.0
0 <= pi_c3 <= 50.0
0 <= pi_c4 <= 50.0
0 <= pi_c5 <= 50.0
0 <= pi_dN <= 50.0
0 <= tauD_c1 <= 100.0
0 <= tauD_c2 <= 100.0
0 <= tauD_c3 <= 100.0
0 <= tauD_c4 <= 100.0
0 <= tauD_c5 <= 100.0
0 <= tauD_d0 <= 100.0
0 <= tauD_dN <= 100.0
0 <= tauS_c1 <= 100.0
0 <= tauS_c2 <= 100.0
0 <= tauS_c3 <= 100.0
0 <= tauS_c4 <= 100.0
0 <= tauS_c5 <= 100.0
0 <= tauS_d0 <= 100.0
0 <= tauS_dN <= 100.0
Generals
  kDash_c1
  kDash_c2
  kDash_c3
  kDash_c4
  kDash_c5
  kDash_dN
  k_c1
  k_c2
  k_c3
  k_c4
  k_c5
  k_dN
  phi_c1
  phi_c2
  phi_c3
  phi_c4
  phi_c5
  phi_d0
  phi_dN
  pi_c1
  pi_c2
  pi_c3
  pi_c4
  pi_c5
  pi_dN
  tauD_c1
  tauD_c2
  tauD_c3
  tauD_c4
  tauD_c5
  tauD_d0
  tauD_dN
  tauS_c1
  tauS_c2
  tauS_c3
  tauS_c4
  tauS_c5
  tauS_d0
  tauS_dN
Binary
  o_1
  o_2
  o_3
  o_4
  o_5
  p_1
  p_2
  p_3
  p_4
  p_5
  x_c1_c2
  x_c1_c3
  x_c1_c4
  x_c1_c5
  x_c1_dN
  x_c2_c1
  x_c2_c3
  x_c2_c4
  x_c2_c5
  x_c2_dN
  x_c3_c1
  x_c3_c2
  x_c3_c4
  x_c3_c5
  x_c3_dN
  x_c4_c1
  x_c4_c2
  x_c4_c3
  x_c4_c5
  x_c4_dN
  x_c5_c1
  x_c5_c2
  x_c5_c3
  x_c5_c4
  x_c5_dN
  x_d0_c1
  x_d0_c2
  x_d0_c3
  x_d0_c4
  x_d0_c5
  z_c1_c2
  z_c1_c3
  z_c1_c4
  z_c1_c5
  z_c1_dN
  z_c2_c1
  z_c2_c3
  z_c2_c4
  z_c2_c5
  z_c2_dN
  z_c3_c1
  z_c3_c2
  z_c3_c4
  z_c3_c5
  z_c3_dN
  z_c4_c1
  z_c4_c2
  z_c4_c3
  z_c4_c5
  z_c4_dN
  z_c5_c1
  z_c5_c2
  z_c5_c3
  z_c5_c4
  z_c5_dN
  z_d0_c1
  z_d0_c2
  z_d0_c3
  z_d0_c4
  z_d0_c5
End
